NAME : tsp_452_sol.txt
COMMENT : OR-Tools Guided Local Search
TYPE : TOUR
DIMENSION : 178
COST : 10113
STATUS : ROUTING_SUCCESS
GAP : 0.00% (Reference Solution)
TOUR_SECTION
1
33
35
49
82
122
24
169
10
76
111
156
153
123
48
77
9
161
170
152
114
28
88
6
74
102
108
72
46
100
3
155
20
109
18
168
17
97
148
99
136
121
93
116
34
143
70
19
132
175
159
81
137
37
39
63
15
167
45
80
7
60
106
54
69
105
23
61
125
67
42
86
113
44
26
94
157
176
21
117
158
178
162
142
138
166
131
112
87
126
79
91
177
173
130
147
107
43
129
133
98
124
119
68
5
51
57
50
4
90
135
32
134
12
38
47
171
89
127
160
36
115
85
53
11
31
14
141
150
64
110
56
8
30
13
174
2
96
22
146
83
29
84
149
78
16
66
144
58
165
40
128
62
75
151
103
65
172
55
52
164
59
92
27
154
95
101
118
25
73
140
104
145
139
120
41
71
163
-1
